(set-option :print-success false)
(set-logic QF_UF)
(declare-sort x148 0)
(declare-sort x150 0)
(declare-fun x126 () x150)
(declare-fun x16 (x150 x150) x150)
(declare-fun x55 (x150 x150) x150)
(declare-fun x89 () x150)
(declare-fun x12 () x150)
(declare-fun x88 () x150)
(declare-fun x94 () x150)
(assert (not (and (and (and (= x88 (x55 x88 x89)) (and (= x12 (x55 x88 x126)) (and (and (and (= x94 (x55 x12 x12)) (and (= (x55 x12 x89) x12) (and (and (= x88 (x55 x12 x94)) (and (and (= (x55 x89 x12) x12) (and (and (and (= x94 (x55 x89 x94)) (and (= x12 (x55 x126 x88)) (and (and (= (x55 x126 x89) x94) (and (= (x55 x126 x126) x88) (and (and (= x126 (x55 x94 x88)) (and (= (x55 x94 x12) x88) (and (= (x55 x94 x89) x89) (and (= (x55 x94 x126) x94) (= (x55 x94 x94) x12))))) (= x89 (x55 x126 x94))))) (= (x55 x126 x12) x126)))) (= (x55 x89 x126) x89)) (= x126 (x55 x89 x89)))) (= x88 (x55 x89 x88)))) (= (x55 x12 x126) x126)))) (= (x55 x12 x88) x89)) (= x126 (x55 x88 x94))))) (= (x55 x88 x12) x89)) (= x94 (x55 x88 x88)))))
(assert (and (and (not (= (x55 x12 x12) x12)) (and (and (not (= x94 (x55 x94 x94))) (not (= x126 (x55 x126 x126)))) (not (= (x55 x89 x89) x89)))) (not (= (x55 x88 x88) x88))))
(assert (or (or (or (and (and (and (and (not (= (x55 (x55 x89 x126) x89) x126)) (not (= x94 (x55 (x55 x89 x94) x89)))) (not (= (x55 (x55 x89 x89) x89) x89))) (not (= (x55 (x55 x89 x12) x89) x12))) (not (= x88 (x55 (x55 x89 x88) x89)))) (or (and (and (not (= (x55 (x55 x94 x12) x94) x12)) (and (not (= x89 (x55 (x55 x94 x89) x94))) (and (not (= x126 (x55 (x55 x94 x126) x94))) (not (= (x55 (x55 x94 x94) x94) x94))))) (not (= x88 (x55 (x55 x94 x88) x94)))) (and (not (= x88 (x55 (x55 x126 x88) x126))) (and (not (= (x55 (x55 x126 x12) x126) x12)) (and (and (not (= x126 (x55 (x55 x126 x126) x126))) (not (= (x55 (x55 x126 x94) x126) x94))) (not (= x89 (x55 (x55 x126 x89) x126)))))))) (and (and (not (= x12 (x55 (x55 x12 x12) x12))) (and (and (not (= x94 (x55 (x55 x12 x94) x12))) (not (= x126 (x55 (x55 x12 x126) x12)))) (not (= x89 (x55 (x55 x12 x89) x12))))) (not (= x88 (x55 (x55 x12 x88) x12))))) (and (not (= x88 (x55 (x55 x88 x88) x88))) (and (not (= (x55 (x55 x88 x12) x88) x12)) (and (and (not (= (x55 (x55 x88 x126) x88) x126)) (not (= x94 (x55 (x55 x88 x94) x88)))) (not (= x89 (x55 (x55 x88 x89) x88))))))))
(assert (and (not (= (x55 (x55 x88 x88) x88) x88)) (and (and (and (not (= (x55 (x55 x126 x126) x126) x126)) (not (= x94 (x55 (x55 x94 x94) x94)))) (not (= x89 (x55 (x55 x89 x89) x89)))) (not (= (x55 (x55 x12 x12) x12) x12)))))
(assert (let ((x154 (x55 x89 x89)) (x116 (x55 x12 x126)) (x45 (x55 x12 x12)) (x86 (x55 x94 x126)) (x63 (x55 x126 x12)) (x49 (x55 x89 x12)) (x65 (x55 x94 x89)) (x97 (x55 x88 x94)) (x159 (x55 x12 x88)) (x84 (x55 x126 x94)) (x156 (x55 x12 x94)) (x6 (x55 x126 x126)) (x66 (x55 x88 x88)) (x144 (x55 x94 x94)) (x68 (x55 x94 x12)) (x15 (x55 x88 x126)) (x115 (x55 x126 x88)) (x26 (x55 x88 x89)) (x152 (x55 x94 x88)) (x73 (x55 x12 x89)) (x11 (x55 x89 x94)) (x158 (x55 x88 x12)) (x137 (x55 x89 x88)) (x34 (x55 x89 x126)) (x5 (x55 x126 x89))) (or (or (or (or (and (and (and (= x5 x34) (and (= x6 x6) (= x86 x84))) (= x63 x116)) (= x15 x115)) (and (and (and (and (= x84 x86) (= x144 x144)) (= x11 x65)) (= x68 x156)) (= x152 x97))) (and (and (= x73 x49) (and (= x154 x154) (and (= x11 x65) (= x5 x34)))) (= x137 x26))) (and (and (and (and (= x68 x156) (= x116 x63)) (= x49 x73)) (= x45 x45)) (= x158 x159))) (and (and (= x159 x158) (and (= x26 x137) (and (= x97 x152) (= x115 x15)))) (= x66 x66)))))
(assert (and (and (and (and (not (= x88 x126)) (and (not (= x126 x12)) (and (and (not (= x88 x94)) (and (not (= x94 x12)) (and (not (= x94 x126)) (not (= x89 x94))))) (not (= x126 x89))))) (not (= x12 x89))) (not (= x89 x88))) (not (= x12 x88))))
(assert (let ((x86 (x55 x94 x126)) (x154 (x55 x89 x89)) (x45 (x55 x12 x12)) (x31 (x55 x126 x94)) (x65 (x55 x94 x89)) (x33 (x55 x89 x94)) (x152 (x55 x94 x88)) (x64 (x55 x88 x94)) (x115 (x55 x126 x88)) (x49 (x55 x89 x12)) (x66 (x55 x88 x88)) (x159 (x55 x12 x88)) (x26 (x55 x88 x89)) (x116 (x55 x12 x126)) (x5 (x55 x126 x89)) (x73 (x55 x12 x89)) (x13 (x55 x94 x94)) (x6 (x55 x126 x126)) (x34 (x55 x89 x126)) (x82 (x55 x12 x94)) (x68 (x55 x94 x12)) (x63 (x55 x126 x12)) (x15 (x55 x88 x126)) (x158 (x55 x88 x12)) (x137 (x55 x89 x88))) (let ((x97 (= x94 x64)) (x30 (= x66 x88)) (x83 (= x5 x89)) (x104 (= x158 x12)) (x84 (= x31 x94)) (x144 (= x94 x13)) (x142 (= x6 x126)) (x59 (= x26 x89)) (x87 (= x88 x159)) (x11 (= x33 x94)) (x129 (= x65 x89)) (x118 (= x73 x89)) (x105 (= x126 x116)) (x153 (= x88 x137)) (x156 (= x82 x94)) (x29 (= x86 x126)) (x140 (= x34 x126)) (x90 (= x45 x12)) (x92 (= x89 x154)) (x56 (= x115 x88)) (x61 (= x12 x63)) (x32 (= x49 x12)) (x109 (= x68 x12)) (x157 (= x88 x152)) (x37 (= x15 x126))) (and (and (or (or (and (= x66 x12) x30) (or (and x104 x87) (or (or (and x56 (= x15 x12)) (and (= x64 x12) x157)) (and x153 (= x12 x26))))) (or (or (or (or (and x118 x32) (or (and x92 (= x12 x154)) (or (and (= x12 x33) x129) (and x83 (= x34 x12))))) (and (= x12 x137) x59)) (or (or (and (= x152 x12) x97) (or (and x109 x156) (or (or (and (= x86 x12) x84) (and (= x13 x12) x144)) (and x11 (= x65 x12))))) (or (or (and x61 x105) (or (and (= x12 x5) x140) (or (and (= x12 x6) x142) (and x29 (= x12 x31))))) (and (= x12 x115) x37)))) (or (and x104 (= x159 x12)) (or (and x90 x90) (or (or (and (= x82 x12) x109) (and x61 (= x12 x116))) (and x32 (= x12 x73))))))) (and (and (or (or (or (or (or (and x118 (= x126 x49)) (or (and x92 (= x154 x126)) (or (and (= x126 x33) x129) (and x83 x140)))) (and x59 (= x137 x126))) (or (or (and (= x126 x115) x37) (or (and x105 (= x63 x126)) (or (or (and x29 (= x126 x31)) (and x142 x142)) (and x140 (= x5 x126))))) (or (and (= x126 x152) x97) (or (or (and x11 (= x126 x65)) (or (and x29 x84) (and (= x126 x13) x144))) (and (= x126 x68) x156))))) (or (or (and x90 (= x45 x126)) (or (and (= x73 x126) x32) (or (and x61 x105) (and x109 (= x82 x126))))) (and (= x159 x126) x104))) (or (or (and (= x158 x126) x87) (or (or (and x157 (= x64 x126)) (and x37 x56)) (and (= x126 x26) x153))) (and x30 (= x66 x126)))) (or (or (or (and (= x94 x159) x104) (or (and (= x45 x94) x90) (or (or (and x156 x109) (and (= x94 x116) x61)) (and x32 (= x94 x73))))) (or (or (or (and x97 (= x152 x94)) (or (or (or (and x144 x144) (and x84 (= x94 x86))) (and (= x94 x65) x11)) (and (= x68 x94) x156))) (or (and x37 (= x115 x94)) (or (and x105 (= x94 x63)) (or (or (and x29 x84) (and x142 (= x6 x94))) (and x140 (= x94 x5)))))) (or (or (or (or (and (= x94 x34) x83) (and x129 x11)) (and (= x154 x94) x92)) (and x118 (= x94 x49))) (and (= x137 x94) x59)))) (or (or (or (or (and x157 x97) (and (= x15 x94) x56)) (and (= x94 x26) x153)) (and (= x94 x158) x87)) (and x30 (= x94 x66))))) (or (or (or (or (or (or (and x92 x92) (or (and x83 (= x34 x89)) (and (= x33 x89) x129))) (and x118 (= x89 x49))) (and (= x89 x137) x59)) (or (or (and x97 (= x89 x152)) (or (or (or (and (= x89 x13) x144) (and (= x86 x89) x84)) (and x129 x11)) (and x156 (= x89 x68)))) (or (or (or (or (and x142 (= x89 x6)) (and (= x31 x89) x29)) (and x140 x83)) (and (= x89 x63) x105)) (and (= x89 x115) x37)))) (or (or (and x90 (= x45 x89)) (or (and x118 x32) (or (and x109 (= x89 x82)) (and (= x89 x116) x61)))) (and x104 (= x159 x89)))) (or (or (and (= x89 x158) x87) (or (and x153 x59) (or (and (= x15 x89) x56) (and x157 (= x89 x64))))) (and x30 (= x66 x89)))))) (or (or (and x30 x30) (or (and x87 (= x88 x158)) (or (or (and (= x88 x15) x56) (and (= x64 x88) x157)) (and x153 (= x26 x88))))) (or (or (or (and (= x45 x88) x90) (or (and (= x88 x73) x32) (or (and x109 (= x88 x82)) (and (= x116 x88) x61)))) (and x87 x104)) (or (or (or (or (and x92 (= x88 x154)) (or (and (= x88 x33) x129) (and (= x34 x88) x83))) (and x118 (= x88 x49))) (and x153 x59)) (or (or (or (and (= x88 x68) x156) (or (or (and x144 (= x13 x88)) (and x84 (= x86 x88))) (and (= x88 x65) x11))) (and x97 x157)) (or (or (or (or (and x142 (= x6 x88)) (and x29 (= x31 x88))) (and (= x5 x88) x140)) (and (= x63 x88) x105)) (and x37 x56))))))))))
(assert (or (and (and (and (not (= (x55 x88 (x55 x88 x89)) x89)) (and (not (= (x55 x88 (x55 x88 x126)) x126)) (not (= x94 (x55 x88 (x55 x88 x94)))))) (not (= (x55 x88 (x55 x88 x12)) x12))) (not (= (x55 x88 (x55 x88 x88)) x88))) (or (or (and (and (not (= x12 (x55 x89 (x55 x89 x12)))) (and (not (= (x55 x89 (x55 x89 x89)) x89)) (and (not (= (x55 x89 (x55 x89 x126)) x126)) (not (= x94 (x55 x89 (x55 x89 x94))))))) (not (= (x55 x89 (x55 x89 x88)) x88))) (or (and (not (= x88 (x55 x94 (x55 x94 x88)))) (and (not (= x12 (x55 x94 (x55 x94 x12)))) (and (and (not (= x94 (x55 x94 (x55 x94 x94)))) (not (= x126 (x55 x94 (x55 x94 x126))))) (not (= x89 (x55 x94 (x55 x94 x89))))))) (and (not (= x88 (x55 x126 (x55 x126 x88)))) (and (and (and (not (= (x55 x126 (x55 x126 x126)) x126)) (not (= (x55 x126 (x55 x126 x94)) x94))) (not (= (x55 x126 (x55 x126 x89)) x89))) (not (= (x55 x126 (x55 x126 x12)) x12)))))) (and (not (= (x55 x12 (x55 x12 x88)) x88)) (and (and (not (= x89 (x55 x12 (x55 x12 x89)))) (and (not (= (x55 x12 (x55 x12 x126)) x126)) (not (= x94 (x55 x12 (x55 x12 x94)))))) (not (= (x55 x12 (x55 x12 x12)) x12)))))))
(assert (let ((x159 (x55 x12 x88)) (x34 (x55 x126 x126)) (x115 (x55 x88 x12)) (x86 (x55 x89 x94)) (x45 (x55 x94 x12)) (x26 (x55 x94 x88)) (x116 (x55 x126 x89)) (x63 (x55 x89 x89)) (x156 (x55 x88 x126)) (x6 (x55 x12 x94)) (x158 (x55 x89 x88)) (x144 (x55 x94 x94)) (x137 (x55 x126 x88)) (x73 (x55 x12 x89)) (x84 (x55 x126 x94)) (x11 (x55 x88 x94)) (x65 (x55 x94 x126)) (x152 (x55 x89 x12)) (x5 (x55 x89 x126)) (x49 (x55 x88 x89)) (x15 (x55 x12 x12)) (x66 (x55 x88 x88)) (x154 (x55 x12 x126)) (x97 (x55 x126 x12)) (x68 (x55 x94 x89))) (and (and (and (and (not (= x66 x49)) (and (not (= x49 x115)) (and (and (not (= x115 x156)) (and (and (and (not (= x11 x115)) (and (not (= x49 x11)) (not (= x11 x156)))) (not (= x11 x66))) (not (= x49 x156)))) (not (= x66 x156))))) (not (= x115 x66))) (and (and (and (and (and (and (not (= x158 x5)) (and (not (= x152 x5)) (and (and (and (not (= x152 x86)) (and (not (= x86 x5)) (not (= x86 x63)))) (not (= x86 x158))) (not (= x63 x5))))) (not (= x63 x152))) (not (= x158 x63))) (not (= x152 x158))) (and (and (and (and (and (not (= x26 x65)) (and (not (= x65 x45)) (and (not (= x65 x68)) (and (and (not (= x45 x144)) (and (not (= x144 x68)) (not (= x65 x144)))) (not (= x144 x26)))))) (not (= x45 x68))) (not (= x68 x26))) (not (= x26 x45))) (and (not (= x137 x97)) (and (and (and (and (and (and (not (= x137 x84)) (and (and (not (= x116 x84)) (not (= x84 x34))) (not (= x97 x84)))) (not (= x34 x116))) (not (= x97 x34))) (not (= x34 x137))) (not (= x116 x97))) (not (= x116 x137)))))) (and (and (and (and (not (= x154 x159)) (and (not (= x154 x15)) (and (and (and (and (not (= x154 x6)) (not (= x6 x73))) (not (= x15 x6))) (not (= x159 x6))) (not (= x154 x73))))) (not (= x73 x15))) (not (= x73 x159))) (not (= x15 x159))))) (and (and (and (and (and (not (= x15 x152)) (and (not (= x97 x115)) (and (and (and (not (= x45 x115)) (and (not (= x45 x15)) (and (not (= x152 x45)) (not (= x97 x45))))) (not (= x152 x97))) (not (= x97 x15))))) (not (= x152 x115))) (not (= x15 x115))) (and (and (and (and (and (not (= x116 x49)) (and (not (= x73 x116)) (and (and (not (= x49 x68)) (and (and (not (= x116 x68)) (not (= x68 x63))) (not (= x73 x68)))) (not (= x116 x63))))) (not (= x63 x73))) (not (= x63 x49))) (not (= x73 x49))) (and (and (not (= x156 x154)) (and (not (= x156 x5)) (and (not (= x154 x5)) (and (and (and (and (and (not (= x154 x65)) (and (not (= x34 x65)) (not (= x65 x5)))) (not (= x65 x156))) (not (= x5 x34))) (not (= x154 x34))) (not (= x34 x156)))))) (and (and (and (not (= x86 x6)) (and (and (not (= x6 x84)) (and (and (and (not (= x6 x144)) (and (not (= x84 x144)) (not (= x144 x86)))) (not (= x11 x144))) (not (= x86 x84)))) (not (= x11 x84)))) (not (= x11 x86))) (not (= x6 x11)))))) (and (and (and (and (not (= x66 x137)) (and (and (and (not (= x66 x26)) (and (and (not (= x137 x26)) (not (= x158 x26))) (not (= x26 x159)))) (not (= x158 x137))) (not (= x159 x137)))) (not (= x159 x158))) (not (= x66 x158))) (not (= x66 x159)))))))
(assert (let ((x137 (x55 x126 x88)) (x29 (x55 x88 x126)) (x72 (x55 x88 x12)) (x112 (x55 x88 x88)) (x11 (x55 x94 x12)) (x65 (x55 x94 x88)) (x104 (x55 x89 x89)) (x154 (x55 x89 x94)) (x86 (x55 x94 x126)) (x115 (x55 x126 x89)) (x84 (x55 x94 x94)) (x26 (x55 x126 x12)) (x6 (x55 x94 x89)) (x156 (x55 x12 x94)) (x96 (x55 x12 x12)) (x21 (x55 x12 x88)) (x30 (x55 x12 x89)) (x122 (x55 x88 x89)) (x157 (x55 x89 x88)) (x5 (x55 x126 x94)) (x68 (x55 x88 x94)) (x13 (x55 x12 x126)) (x15 (x55 x126 x126)) (x64 (x55 x89 x12)) (x66 (x55 x89 x126))) (let ((x33 (= x12 x15)) (x69 (= x88 x64)) (x35 (= x12 x104)) (x83 (= x88 x86)) (x45 (= x86 x94)) (x4 (= x68 x88)) (x40 (= x137 x89)) (x109 (= x94 x115)) (x38 (= x154 x89)) (x41 (= x13 x94)) (x78 (= x137 x12)) (x111 (= x126 x112)) (x139 (= x94 x21)) (x102 (= x157 x89)) (x113 (= x156 x126)) (x53 (= x12 x115)) (x77 (= x12 x64)) (x149 (= x12 x122)) (x54 (= x88 x96)) (x100 (= x89 x21)) (x147 (= x126 x96)) (x87 (= x126 x104)) (x114 (= x88 x26)) (x48 (= x12 x157)) (x153 (= x115 x126)) (x10 (= x64 x126)) (x3 (= x126 x72)) (x19 (= x126 x137)) (x130 (= x26 x89)) (x159 (= x15 x126)) (x98 (= x11 x94)) (x135 (= x157 x94)) (x140 (= x89 x15)) (x52 (= x26 x12)) (x17 (= x13 x12)) (x62 (= x65 x12)) (x123 (= x66 x88)) (x119 (= x94 x30)) (x82 (= x6 x94)) (x125 (= x126 x122)) (x28 (= x64 x94)) (x101 (= x21 x126)) (x144 (= x94 x84)) (x27 (= x29 x126)) (x67 (= x21 x88)) (x39 (= x65 x126)) (x80 (= x94 x112)) (x118 (= x94 x154)) (x46 (= x12 x66)) (x18 (= x29 x88)) (x81 (= x115 x88)) (x24 (= x126 x157)) (x25 (= x89 x6)) (x107 (= x104 x88)) (x134 (= x89 x30)) (x9 (= x96 x89)) (x133 (= x12 x96)) (x49 (= x5 x94)) (x131 (= x12 x11)) (x74 (= x64 x89)) (x97 (= x15 x94)) (x108 (= x122 x94)) (x103 (= x115 x89)) (x85 (= x68 x126)) (x59 (= x66 x94)) (x142 (= x86 x89)) (x22 (= x94 x96)) (x2 (= x13 x89)) (x116 (= x84 x89)) (x1 (= x137 x88)) (x95 (= x6 x88)) (x20 (= x12 x112)) (x63 (= x12 x84)) (x117 (= x11 x89)) (x42 (= x94 x68)) (x136 (= x156 x12)) (x99 (= x89 x29)) (x36 (= x72 x94)) (x158 (= x126 x86)) (x146 (= x94 x26)) (x155 (= x13 x126)) (x138 (= x12 x30)) (x31 (= x89 x5)) (x91 (= x89 x156)) (x51 (= x29 x12)) (x128 (= x30 x88)) (x73 (= x88 x84)) (x44 (= x94 x29)) (x132 (= x88 x156)) (x43 (= x72 x89)) (x127 (= x88 x157)) (x79 (= x12 x68)) (x90 (= x126 x66)) (x50 (= x89 x65)) (x32 (= x154 x126)) (x61 (= x104 x94)) (x7 (= x65 x88)) (x56 (= x6 x126)) (x145 (= x154 x12)) (x34 (= x126 x84)) (x106 (= x137 x94)) (x120 (= x6 x12)) (x129 (= x88 x5)) (x70 (= x94 x65)) (x47 (= x104 x89)) (x76 (= x88 x13)) (x23 (= x126 x30)) (x141 (= x11 x126)) (x143 (= x72 x12)) (x93 (= x88 x112)) (x60 (= x88 x72)) (x58 (= x112 x89)) (x105 (= x12 x5)) (x110 (= x89 x68)) (x8 (= x89 x122)) (x14 (= x12 x21)) (x152 (= x126 x5)) (x75 (= x66 x89)) (x92 (= x15 x88)) (x121 (= x88 x122)) (x151 (= x154 x88)) (x71 (= x94 x156)) (x57 (= x11 x88)) (x124 (= x26 x126)) (x37 (= x86 x12))) (and (and (and (and (and (and (and (or (or (or x145 (or x105 x63)) x136) x79) (or (or (or x120 (or x37 x63)) x131) x62)) (and (and (or (or x117 (or (or x142 x116) x25)) x50) (or (or x91 (or (or x116 x31) x38)) x110)) (and (and (or x39 (or x141 (or (or x34 x158) x56))) (or (or (or (or x34 x152) x32) x113) x85)) (and (or (or x71 (or x118 (or x49 x144))) x42) (or (or x98 (or (or x45 x144) x82)) x70))))) (and (or (or (or x95 (or x73 x83)) x57) x7) (or (or x132 (or (or x129 x73) x151)) x4))) (and (and (or (or x114 (or x81 (or x92 x129))) x1) (or (or (or (or x83 x92) x123) x76) x18)) (and (and (and (or (or x2 (or (or x140 x142) x75)) x99) (or (or (or (or x140 x31) x103) x130) x40)) (and (and (or (or (or x59 (or x45 x97)) x41) x44) (or (or (or x109 (or x49 x97)) x146) x106)) (and (or x19 (or x124 (or x153 (or x159 x152)))) (or x27 (or (or x90 (or x159 x158)) x155))))) (and (or x78 (or x52 (or (or x105 x33) x53))) (or x51 (or (or (or x33 x37) x46) x17)))))) (and (and (or (or (or x107 (or x81 x95)) x128) x121) (or (or x69 (or (or x123 x151) x107)) x127)) (and (and (and (and (or (or x23 (or (or x56 x153) x87)) x125) (or (or (or x87 (or x32 x90)) x10) x24)) (and (or x108 (or (or (or x82 x109) x61) x119)) (or (or (or (or x59 x118) x61) x28) x135))) (and (or x102 (or (or (or x75 x38) x47) x74)) (or (or x134 (or (or x25 x103) x47)) x8))) (and (or (or (or (or x120 x53) x35) x138) x149) (or (or (or x35 (or x145 x46)) x77) x48))))) (and (and (or (or (or x128 (or x76 x132)) x54) x67) (or x60 (or x54 (or (or x57 x114) x69)))) (and (and (and (or x100 (or x9 (or x134 (or x2 x91)))) (or (or (or x74 (or x117 x130)) x9) x43)) (and (and (or x101 (or x147 (or (or x113 x155) x23))) (or (or x147 (or x10 (or x124 x141))) x3)) (and (or x139 (or x22 (or x119 (or x71 x41)))) (or x36 (or (or x28 (or x98 x146)) x22))))) (and (or (or (or x138 (or x17 x136)) x133) x14) (or x143 (or x133 (or x77 (or x131 x52)))))))) (and (and (or x93 (or (or (or x1 x7) x127) x67)) (or x93 (or x60 (or (or x4 x18) x121)))) (and (and (or (or (or (or x79 x51) x149) x143) x20) (or x20 (or x14 (or (or x62 x78) x48)))) (and (and (or x58 (or (or (or x40 x50) x102) x100)) (or (or (or (or x99 x110) x8) x43) x58)) (and (and (or x80 (or (or (or x70 x106) x135) x139)) (or x80 (or (or x108 (or x44 x42)) x36))) (and (or (or (or (or x19 x39) x24) x101) x111) (or (or x3 (or x125 (or x85 x27))) x111))))))))))
(assert (let ((x83 (x55 x88 x94)) (x142 (x55 x126 x94)) (x103 (x55 x88 x89)) (x25 (x55 x89 x88)) (x30 (x55 x89 x89)) (x37 (x55 x94 x12)) (x61 (x55 x89 x126)) (x13 (x55 x94 x94)) (x140 (x55 x94 x89)) (x32 (x55 x126 x12)) (x151 (x55 x12 x12)) (x104 (x55 x126 x88)) (x105 (x55 x89 x94)) (x109 (x55 x126 x89)) (x129 (x55 x94 x88)) (x31 (x55 x94 x126)) (x33 (x55 x12 x94)) (x81 (x55 x88 x12)) (x38 (x55 x89 x12)) (x90 (x55 x12 x126)) (x59 (x55 x126 x126)) (x64 (x55 x88 x126)) (x95 (x55 x12 x88)) (x75 (x55 x12 x89)) (x113 (x55 x88 x88))) (let ((x141 (= x59 x89)) (x8 (= x13 x88)) (x15 (= x64 x94)) (x147 (= x89 x61)) (x48 (= x75 x88)) (x62 (= x90 x88)) (x50 (= x31 x88)) (x4 (= x88 x83)) (x138 (= x89 x129)) (x10 (= x140 x89)) (x21 (= x31 x89)) (x155 (= x126 x113)) (x122 (= x30 x126)) (x82 (= x59 x126)) (x136 (= x151 x89)) (x70 (= x12 x30)) (x34 (= x61 x94)) (x79 (= x109 x88)) (x106 (= x33 x12)) (x100 (= x88 x140)) (x60 (= x104 x88)) (x46 (= x126 x90)) (x101 (= x12 x25)) (x117 (= x90 x89)) (x93 (= x88 x113)) (x27 (= x12 x38)) (x20 (= x151 x88)) (x154 (= x94 x30)) (x131 (= x64 x89)) (x121 (= x64 x88)) (x111 (= x81 x12)) (x17 (= x89 x83)) (x156 (= x33 x94)) (x96 (= x142 x89)) (x107 (= x126 x83)) (x35 (= x38 x126)) (x19 (= x12 x104)) (x158 (= x81 x94)) (x3 (= x12 x83)) (x77 (= x103 x89)) (x43 (= x88 x142)) (x51 (= x88 x30)) (x74 (= x89 x75)) (x128 (= x89 x113)) (x149 (= x33 x88)) (x84 (= x142 x94)) (x145 (= x126 x37)) (x67 (= x95 x88)) (x18 (= x129 x88)) (x120 (= x32 x126)) (x91 (= x89 x30)) (x72 (= x109 x89)) (x157 (= x126 x105)) (x135 (= x37 x12)) (x146 (= x126 x25)) (x152 (= x129 x94)) (x53 (= x126 x75)) (x76 (= x89 x95)) (x44 (= x12 x140)) (x23 (= x89 x13)) (x52 (= x89 x104)) (x153 (= x126 x61)) (x80 (= x32 x12)) (x11 (= x94 x105)) (x65 (= x94 x140)) (x116 (= x90 x94)) (x36 (= x12 x109)) (x127 (= x81 x88)) (x97 (= x94 x83)) (x125 (= x12 x151)) (x22 (= x95 x126)) (x7 (= x88 x103)) (x143 (= x37 x88)) (x63 (= x32 x94)) (x71 (= x126 x129)) (x130 (= x32 x89)) (x56 (= x140 x126)) (x24 (= x12 x103)) (x9 (= x38 x89)) (x98 (= x103 x126)) (x86 (= x31 x94)) (x87 (= x109 x126)) (x137 (= x94 x25)) (x115 (= x104 x94)) (x119 (= x126 x104)) (x6 (= x59 x94)) (x133 (= x25 x89)) (x66 (= x94 x113)) (x144 (= x13 x94)) (x102 (= x105 x88)) (x69 (= x12 x31)) (x54 (= x59 x12)) (x112 (= x12 x129)) (x110 (= x95 x12)) (x114 (= x12 x142)) (x5 (= x94 x109)) (x92 (= x126 x142)) (x28 (= x81 x126)) (x78 (= x88 x32)) (x124 (= x105 x89)) (x29 (= x13 x126)) (x40 (= x88 x59)) (x159 (= x94 x95)) (x1 (= x88 x25)) (x49 (= x94 x38)) (x123 (= x151 x126)) (x26 (= x94 x103)) (x85 (= x12 x75)) (x118 (= x126 x31)) (x2 (= x33 x89)) (x14 (= x88 x38)) (x99 (= x12 x113)) (x57 (= x13 x12)) (x108 (= x12 x61)) (x58 (= x61 x88)) (x68 (= x37 x94)) (x45 (= x94 x151)) (x134 (= x89 x37)) (x73 (= x75 x94)) (x41 (= x126 x64)) (x42 (= x105 x12)) (x47 (= x126 x33)) (x132 (= x89 x81)) (x139 (= x90 x12)) (x39 (= x64 x12))) (and (and (or (or (and x99 x99) (or (or (or (and x39 x19) (and x3 x112)) (and x24 x101)) (and x111 x110))) (or (or (or (or (or (or (and x36 x108) (or (and x69 x114) (and x54 x54))) (and x139 x80)) (and x19 x39)) (or (or (or (or (and x57 x57) (and x114 x69)) (and x44 x42)) (and x106 x135)) (and x3 x112))) (or (or (or (and x70 x70) (or (and x44 x42) (and x36 x108))) (and x27 x85)) (and x24 x101))) (or (and x111 x110) (or (and x125 x125) (or (or (and x80 x139) (and x106 x135)) (and x85 x27)))))) (and (and (or (or (or (or (or (or (and x47 x145) (and x46 x120)) (and x53 x35)) (and x123 x123)) (and x28 x22)) (or (or (or (or (or (and x87 x153) (or (and x82 x82) (and x118 x92))) (and x46 x120)) (and x119 x41)) (or (or (or (or (and x92 x118) (and x29 x29)) (and x157 x56)) (and x145 x47)) (and x107 x71))) (or (or (and x53 x35) (or (or (and x157 x56) (and x87 x153)) (and x122 x122))) (and x146 x98)))) (or (and x155 x155) (or (and x28 x22) (or (or (and x41 x119) (and x107 x71)) (and x146 x98))))) (or (or (and x66 x66) (or (and x158 x159) (or (or (and x152 x97) (and x115 x15)) (and x137 x26)))) (or (or (and x158 x159) (or (and x45 x45) (or (and x73 x49) (or (and x116 x63) (and x68 x156))))) (or (or (or (and x152 x97) (or (or (and x65 x11) (or (and x84 x86) (and x144 x144))) (and x156 x68))) (or (and x115 x15) (or (and x63 x116) (or (or (and x84 x86) (and x6 x6)) (and x34 x5))))) (or (or (or (and x154 x154) (or (and x65 x11) (and x34 x5))) (and x49 x73)) (and x137 x26)))))) (or (or (or (and x132 x76) (or (and x136 x136) (or (or (and x117 x130) (and x134 x2)) (and x74 x9)))) (or (or (or (or (or (or (and x21 x96) (and x23 x23)) (and x10 x124)) (and x134 x2)) (and x17 x138)) (or (and x52 x131) (or (and x130 x117) (or (and x72 x147) (or (and x141 x141) (and x21 x96)))))) (or (and x133 x77) (or (or (or (and x72 x147) (and x124 x10)) (and x91 x91)) (and x9 x74))))) (or (and x128 x128) (or (or (or (and x138 x17) (and x131 x52)) (and x133 x77)) (and x132 x76)))))) (or (or (or (or (or (or (or (or (and x43 x50) (and x40 x40)) (and x58 x79)) (and x78 x62)) (and x121 x60)) (or (and x18 x4) (or (and x149 x143) (or (or (and x43 x50) (and x8 x8)) (and x100 x102))))) (or (and x7 x1) (or (and x14 x48) (or (or (and x100 x102) (and x58 x79)) (and x51 x51))))) (or (or (or (and x14 x48) (or (and x143 x149) (and x62 x78))) (and x20 x20)) (and x127 x67))) (or (and x93 x93) (or (and x127 x67) (or (or (and x4 x18) (and x60 x121)) (and x1 x7)))))))))
(assert (or (or (or (or (and (not (= x94 (x55 (x55 x88 x94) x88))) (and (and (and (not (= (x55 (x55 x94 x94) x94) x94)) (not (= x94 (x55 (x55 x126 x94) x126)))) (not (= x94 (x55 (x55 x89 x94) x89)))) (not (= x94 (x55 (x55 x12 x94) x12))))) (and (and (and (and (not (= (x55 (x55 x126 x126) x126) x126)) (not (= (x55 (x55 x94 x126) x94) x126))) (not (= (x55 (x55 x89 x126) x89) x126))) (not (= (x55 (x55 x12 x126) x12) x126))) (not (= x126 (x55 (x55 x88 x126) x88))))) (and (and (not (= x89 (x55 (x55 x12 x89) x12))) (and (not (= x89 (x55 (x55 x89 x89) x89))) (and (not (= x89 (x55 (x55 x94 x89) x94))) (not (= x89 (x55 (x55 x126 x89) x126)))))) (not (= x89 (x55 (x55 x88 x89) x88))))) (and (and (not (= (x55 (x55 x12 x12) x12) x12)) (and (not (= x12 (x55 (x55 x89 x12) x89))) (and (not (= x12 (x55 (x55 x94 x12) x94))) (not (= (x55 (x55 x126 x12) x126) x12))))) (not (= (x55 (x55 x88 x12) x88) x12)))) (and (not (= x88 (x55 (x55 x88 x88) x88))) (and (and (and (not (= (x55 (x55 x126 x88) x126) x88)) (not (= x88 (x55 (x55 x94 x88) x94)))) (not (= (x55 (x55 x89 x88) x89) x88))) (not (= (x55 (x55 x12 x88) x12) x88))))))
(assert (or (or (and (not (= (x55 (x55 x88 x12) x12) x88)) (and (and (not (= (x55 (x55 x89 x12) x12) x89)) (and (not (= x126 (x55 (x55 x126 x12) x12))) (not (= (x55 (x55 x94 x12) x12) x94)))) (not (= (x55 (x55 x12 x12) x12) x12)))) (or (and (not (= x88 (x55 (x55 x88 x89) x89))) (and (not (= (x55 (x55 x12 x89) x89) x12)) (and (and (not (= (x55 (x55 x126 x89) x89) x126)) (not (= x94 (x55 (x55 x94 x89) x89)))) (not (= x89 (x55 (x55 x89 x89) x89)))))) (or (and (and (not (= (x55 (x55 x12 x94) x94) x12)) (and (not (= (x55 (x55 x89 x94) x94) x89)) (and (not (= x126 (x55 (x55 x126 x94) x94))) (not (= (x55 (x55 x94 x94) x94) x94))))) (not (= x88 (x55 (x55 x88 x94) x94)))) (and (not (= (x55 (x55 x88 x126) x126) x88)) (and (not (= (x55 (x55 x12 x126) x126) x12)) (and (and (not (= x94 (x55 (x55 x94 x126) x126))) (not (= x126 (x55 (x55 x126 x126) x126)))) (not (= (x55 (x55 x89 x126) x126) x89)))))))) (and (and (and (and (not (= (x55 (x55 x94 x88) x88) x94)) (not (= (x55 (x55 x126 x88) x88) x126))) (not (= (x55 (x55 x89 x88) x88) x89))) (not (= x12 (x55 (x55 x12 x88) x88)))) (not (= (x55 (x55 x88 x88) x88) x88)))))
(assert (let ((x6 (x55 x12 x12)) (x11 (x55 x88 x88)) (x86 (x55 x89 x89)) (x84 (x55 x126 x126)) (x144 (x55 x94 x94))) (or (and (not (= x88 x11)) (and (not (= x6 x88)) (and (and (not (= x144 x88)) (not (= x88 x84))) (not (= x88 x86))))) (or (or (and (not (= x89 x11)) (and (and (and (not (= x89 x144)) (not (= x84 x89))) (not (= x89 x86))) (not (= x89 x6)))) (or (and (not (= x11 x126)) (and (and (not (= x86 x126)) (and (not (= x84 x126)) (not (= x126 x144)))) (not (= x6 x126)))) (and (and (and (not (= x94 x86)) (and (not (= x94 x144)) (not (= x84 x94)))) (not (= x6 x94))) (not (= x94 x11))))) (and (not (= x12 x11)) (and (not (= x6 x12)) (and (not (= x12 x86)) (and (not (= x144 x12)) (not (= x12 x84))))))))))
(assert (let ((x116 (x55 x89 x126)) (x152 (x55 x12 x89)) (x5 (x55 x126 x89)) (x97 (x55 x12 x126)) (x115 (x55 x12 x88)) (x11 (x55 x94 x88)) (x156 (x55 x126 x88)) (x63 (x55 x89 x89)) (x26 (x55 x88 x94)) (x68 (x55 x89 x94)) (x6 (x55 x94 x12)) (x73 (x55 x89 x12)) (x15 (x55 x12 x12)) (x137 (x55 x88 x126)) (x45 (x55 x12 x94)) (x159 (x55 x88 x12)) (x49 (x55 x89 x88)) (x144 (x55 x94 x94)) (x65 (x55 x126 x94)) (x154 (x55 x126 x12)) (x158 (x55 x88 x89)) (x86 (x55 x94 x89)) (x34 (x55 x126 x126)) (x84 (x55 x94 x126)) (x66 (x55 x88 x88))) (and (and (and (and (and (and (and (and (or (or (or (= x144 x89) (or (= x144 x126) (= x144 x94))) (= x12 x144)) (= x144 x88)) (or (= x84 x88) (or (= x12 x84) (or (= x84 x89) (or (= x84 x94) (= x126 x84)))))) (or (or (or (= x86 x89) (or (= x86 x126) (= x94 x86))) (= x12 x86)) (= x88 x86))) (or (or (or (= x89 x6) (or (= x6 x94) (= x6 x126))) (= x6 x12)) (= x6 x88))) (or (= x11 x88) (or (or (= x89 x11) (or (= x126 x11) (= x94 x11))) (= x11 x12)))) (and (or (= x156 x88) (or (= x12 x156) (or (or (= x156 x126) (= x156 x94)) (= x89 x156)))) (and (and (or (or (= x12 x5) (or (= x89 x5) (or (= x5 x126) (= x94 x5)))) (= x88 x5)) (and (or (= x88 x34) (or (= x12 x34) (or (= x89 x34) (or (= x34 x94) (= x34 x126))))) (or (= x65 x88) (or (= x65 x12) (or (= x65 x89) (or (= x65 x94) (= x126 x65))))))) (or (or (= x12 x154) (or (= x89 x154) (or (= x126 x154) (= x94 x154)))) (= x154 x88))))) (and (or (or (or (= x89 x49) (or (= x94 x49) (= x49 x126))) (= x49 x12)) (= x88 x49)) (and (or (= x73 x88) (or (= x12 x73) (or (= x73 x89) (or (= x126 x73) (= x94 x73))))) (and (or (or (= x12 x63) (or (or (= x63 x126) (= x94 x63)) (= x63 x89))) (= x63 x88)) (and (or (or (or (or (= x116 x126) (= x116 x94)) (= x89 x116)) (= x116 x12)) (= x88 x116)) (or (= x88 x68) (or (or (= x68 x89) (or (= x126 x68) (= x68 x94))) (= x12 x68)))))))) (and (and (and (and (or (or (= x12 x97) (or (= x89 x97) (or (= x97 x94) (= x126 x97)))) (= x97 x88)) (or (or (= x12 x45) (or (= x45 x89) (or (= x45 x94) (= x45 x126)))) (= x88 x45))) (or (= x152 x88) (or (= x152 x12) (or (or (= x152 x126) (= x94 x152)) (= x89 x152))))) (or (= x15 x88) (or (or (or (= x15 x126) (= x15 x94)) (= x89 x15)) (= x15 x12)))) (or (= x115 x88) (or (or (= x89 x115) (or (= x115 x94) (= x126 x115))) (= x12 x115))))) (and (and (and (or (or (or (= x89 x158) (or (= x126 x158) (= x94 x158))) (= x12 x158)) (= x88 x158)) (and (or (or (= x12 x26) (or (= x26 x89) (or (= x26 x94) (= x26 x126)))) (= x88 x26)) (or (or (= x12 x137) (or (or (= x137 x94) (= x126 x137)) (= x89 x137))) (= x88 x137)))) (or (= x159 x88) (or (= x12 x159) (or (= x159 x89) (or (= x126 x159) (= x94 x159)))))) (or (= x66 x88) (or (or (or (= x126 x66) (= x66 x94)) (= x66 x89)) (= x12 x66)))))))
(assert (and (and (and (= x126 (x55 x89 x89)) (= (x55 x126 x89) x94)) (= x12 (x55 x94 x94))) (= x88 (x55 x94 x12))))
(check-sat)
(exit)
